12 40 3 10
14 1 3 17 13 10 19 14 14 12 15 5 7 11 13 20 20 1 8 2 10 6 14 7 20 8 16 19 14 18 4 7 14 14 11 5 17 18 1 16 
13.22 11.77 5.6 9.28 11.42 14.65 5.23 13.99 12.72 14.44 8.14 14.3 7.87 4.76 5.3 9.26 2.14 8.41 4.38 13.44 10.96 5.44 13.55 3.32 10.88 7.01 3.79 11.71 10.8 6.69 2.04 2.43 7.6 7.88 6.3 12.94 0 5.25 11.1 3.92 
11.65 10.35 9.01 6.69 10.84 3.07 5.55 2.94 2.68 12.8 8.1 8.97 14.18 6.24 11.86 1.64 13.43 3.69 4.63 9.77 12.62 2.54 7.87 1.15 1.2 7.53 3.62 4.13 7.09 6.05 13.42 11.79 3.93 5.41 11.7 11.22 12.35 7.83 7.34 9.43 
1.88 1.26 9.84 2.08 2.97 2.27 5.58 7.47 3.93 15.72 0.67 11.78 6.13 2.09 6.62 1.58 6.84 6.59 3.24 8.15 1.61 4 10.09 4.83 3.07 10.82 14.17 4.16 5.81 14.53 14.82 5.64 14.86 11.28 8.87 0.68 10.49 0.59 12.72 12.88 
8 8 8 8 8 8 8 8 8 8 8 8 8 8 8 8 8 8 8 8 8 8 8 8 8 8 8 8 8 8 8 8 8 8 8 8 8 8 8 8 
14.61 8.87 5.78 15.37 9.76 6.39 9.52 15.64 8.31 13.17 13.29 1.83 13.85 7.41 13.12 2.45 1.49 15.96 1.31 12.98 6.86 6.27 15.16 14.48 4.74 3.47 0.59 12.12 15.16 5.83 4.28 12.73 9.39 14.72 9.04 14.31 6.48 6.47 11.21 13.67 
10.09 9.1 8.14 15.31 6.28 12.01 10.62 5.87 13.62 5.35 3.4 5.53 2.02 8.41 2.11 10.5 7.71 12.91 2.07 9.2 10.56 15.92 4.88 3.52 6.18 3.11 2.07 9.77 15.25 12.78 4.06 2.53 9.64 12.45 8.24 0.49 7.17 5.35 14.71 6.62 
10.79 14.93 15.9 15.84 8.62 6.5 6.9 15.52 5.69 11.8 8.77 10.77 4.34 13.38 0.78 7.26 10.03 3.1 11.15 5.85 10.34 12.75 0.4 7.44 10.65 6.57 0.1 14.16 10.5 7.63 13.18 1.53 1.1 5.13 15.82 15.26 5.8 14.82 15.39 4.45 
5.65 1.16 12.35 0.79 0.28 7.1 10.64 1.51 2.61 2.04 12.13 3.8 8.83 12.62 0.06 5.57 5.99 6.06 10.97 4.44 12.36 4.27 13.12 11.45 4.41 8.14 15.77 8.69 12.98 5.24 8.51 7.56 9.21 11.28 5.07 14.2 15.32 8.89 10.77 5.89 
12.55 12.53 11.96 11.13 4.27 1.42 6.06 2.01 14.37 11.42 12.7 0.4 4.97 8.53 15.6 8.88 1.63 5.92 8.59 11.04 5.02 3.23 8.5 7.42 2.91 1.12 1.66 9.87 11.14 0.77 4.89 0.82 2 5.18 5.24 12.41 6.42 14.99 2.68 6.03 
10.59 6.31 1.39 7.23 0.61 0.65 8.36 1.27 8.1 13.01 11.38 3.4 11.87 14.95 11.21 8.03 12.95 0.28 10.81 11.41 8.14 5.69 5.65 10.41 11.1 7.34 5.29 14.09 1.11 15.27 0.25 14.41 15.67 11.51 15.22 1.14 5.95 5.33 13.94 6.36 
10.82 14.17 2.73 15.33 6.51 13.59 15.81 14.34 14.68 2.44 1.7 1.36 15.03 2.88 6.08 13.72 0.58 1.19 6.67 9.03 15.3 2.7 5.32 5.19 0.04 3.79 5.79 13.17 13.49 11.44 7.41 5.79 0.18 3.86 6.52 12.39 3.29 12 5.9 3.45 
13.79 15.31 11.65 13.37 12.53 14.65 9.52 14.01 15.17 7.89 8.35 8.92 2.16 6.46 9.51 11.02 3.22 5.05 4.99 11.84 5.83 6.54 10.27 10.08 4.01 13.85 12.85 1.6 9.64 4.27 14.48 7.39 4.7 5.19 7.52 15.33 8.54 1.18 3.93 1.87 
1 1 1 1 1 1 1 1 1 1 1 1 1 1 1 1 1 1 1 1 1 1 1 1 1 1 1 1 1 1 1 1 1 1 1 1 1 1 1 1 
1 1 1 1 1 1 1 1 1 1 1 1 1 1 1 1 1 1 1 1 1 1 1 1 1 1 1 1 1 1 1 1 1 1 1 1 1 1 1 1 
1 1 1 1 1 1 1 1 1 1 1 1 1 1 1 1 1 1 1 1 1 1 1 1 1 1 1 1 1 1 1 1 1 1 1 1 1 1 1 1 
1 1 1 1 1 1 1 1 1 1 1 1 1 1 1 1 1 1 1 1 1 1 1 1 1 1 1 1 1 1 1 1 1 1 1 1 1 1 1 1 
1 1 1 1 1 1 1 1 1 1 1 1 1 1 1 1 1 1 1 1 1 1 1 1 1 1 1 1 1 1 1 1 1 1 1 1 1 1 1 1 
1 1 1 1 1 1 1 1 1 1 1 1 1 1 1 1 1 1 1 1 1 1 1 1 1 1 1 1 1 1 1 1 1 1 1 1 1 1 1 1 
1 1 1 1 1 1 1 1 1 1 1 1 1 1 1 1 1 1 1 1 1 1 1 1 1 1 1 1 1 1 1 1 1 1 1 1 1 1 1 1 
1 1 1 1 1 1 1 1 1 1 1 1 1 1 1 1 1 1 1 1 1 1 1 1 1 1 1 1 1 1 1 1 1 1 1 1 1 1 1 1 
1 1 1 1 1 1 1 1 1 1 1 1 1 1 1 1 1 1 1 1 1 1 1 1 1 1 1 1 1 1 1 1 1 1 1 1 1 1 1 1 
1 1 1 1 1 1 1 1 1 1 1 1 1 1 1 1 1 1 1 1 1 1 1 1 1 1 1 1 1 1 1 1 1 1 1 1 1 1 1 1 
1 1 1 1 1 1 1 1 1 1 1 1 1 1 1 1 1 1 1 1 1 1 1 1 1 1 1 1 1 1 1 1 1 1 1 1 1 1 1 1 
1 1 1 1 1 1 1 1 1 1 1 1 1 1 1 1 1 1 1 1 1 1 1 1 1 1 1 1 1 1 1 1 1 1 1 1 1 1 1 1 
0.01 0.01 0.01 0.01 0.01 0.01 0.01 0.01 0.01 0.01 0.01 0.01 0.01 0.01 0.01 0.01 0.01 0.01 0.01 0.01 0.01 0.01 0.01 0.01 0.01 0.01 0.01 0.01 0.01 0.01 0.01 0.01 0.01 0.01 0.01 0.01 0.01 0.01 0.01 0.01 
0.02 0.02 0.02 0.02 0.02 0.02 0.02 0.02 0.02 0.02 0.02 0.02 0.02 0.02 0.02 0.02 0.02 0.02 0.02 0.02 0.02 0.02 0.02 0.02 0.02 0.02 0.02 0.02 0.02 0.02 0.02 0.02 0.02 0.02 0.02 0.02 0.02 0.02 0.02 0.02 
0.03 0.03 0.03 0.03 0.03 0.03 0.03 0.03 0.03 0.03 0.03 0.03 0.03 0.03 0.03 0.03 0.03 0.03 0.03 0.03 0.03 0.03 0.03 0.03 0.03 0.03 0.03 0.03 0.03 0.03 0.03 0.03 0.03 0.03 0.03 0.03 0.03 0.03 0.03 0.03 
0.04 0.04 0.04 0.04 0.04 0.04 0.04 0.04 0.04 0.04 0.04 0.04 0.04 0.04 0.04 0.04 0.04 0.04 0.04 0.04 0.04 0.04 0.04 0.04 0.04 0.04 0.04 0.04 0.04 0.04 0.04 0.04 0.04 0.04 0.04 0.04 0.04 0.04 0.04 0.04 
0.125 0.125 0.125 0.125 0.125 0.125 0.125 0.125 0.125 0.125 0.125 0.125 0.125 0.125 0.125 0.125 0.125 0.125 0.125 0.125 0.125 0.125 0.125 0.125 0.125 0.125 0.125 0.125 0.125 0.125 0.125 0.125 0.125 0.125 0.125 0.125 0.125 0.125 0.125 0.125 
0.25 0.25 0.25 0.25 0.25 0.25 0.25 0.25 0.25 0.25 0.25 0.25 0.25 0.25 0.25 0.25 0.25 0.25 0.25 0.25 0.25 0.25 0.25 0.25 0.25 0.25 0.25 0.25 0.25 0.25 0.25 0.25 0.25 0.25 0.25 0.25 0.25 0.25 0.25 0.25 
0.375 0.375 0.375 0.375 0.375 0.375 0.375 0.375 0.375 0.375 0.375 0.375 0.375 0.375 0.375 0.375 0.375 0.375 0.375 0.375 0.375 0.375 0.375 0.375 0.375 0.375 0.375 0.375 0.375 0.375 0.375 0.375 0.375 0.375 0.375 0.375 0.375 0.375 0.375 0.375 
0.5 0.5 0.5 0.5 0.5 0.5 0.5 0.5 0.5 0.5 0.5 0.5 0.5 0.5 0.5 0.5 0.5 0.5 0.5 0.5 0.5 0.5 0.5 0.5 0.5 0.5 0.5 0.5 0.5 0.5 0.5 0.5 0.5 0.5 0.5 0.5 0.5 0.5 0.5 0.5 
0.625 0.625 0.625 0.625 0.625 0.625 0.625 0.625 0.625 0.625 0.625 0.625 0.625 0.625 0.625 0.625 0.625 0.625 0.625 0.625 0.625 0.625 0.625 0.625 0.625 0.625 0.625 0.625 0.625 0.625 0.625 0.625 0.625 0.625 0.625 0.625 0.625 0.625 0.625 0.625 
0.75 0.75 0.75 0.75 0.75 0.75 0.75 0.75 0.75 0.75 0.75 0.75 0.75 0.75 0.75 0.75 0.75 0.75 0.75 0.75 0.75 0.75 0.75 0.75 0.75 0.75 0.75 0.75 0.75 0.75 0.75 0.75 0.75 0.75 0.75 0.75 0.75 0.75 0.75 0.75 
0.875 0.875 0.875 0.875 0.875 0.875 0.875 0.875 0.875 0.875 0.875 0.875 0.875 0.875 0.875 0.875 0.875 0.875 0.875 0.875 0.875 0.875 0.875 0.875 0.875 0.875 0.875 0.875 0.875 0.875 0.875 0.875 0.875 0.875 0.875 0.875 0.875 0.875 0.875 0.875 
1 1 1 1 1 1 1 1 1 1 1 1 1 1 1 1 1 1 1 1 1 1 1 1 1 1 1 1 1 1 1 1 1 1 1 1 1 1 1 1 
